20190523 40 0 0 0
20180417 91 0 0 0
20170517 10 0 0 0
20160707 10 0 0 0
20140711 20 0 0 0
20110324 50 3500 0 0
20100504 50 6000 0 0
20090605 50 0 0 0
20080520 50 2500 0 0
20070613 50 0 0 0
20060608 50 0 0 0
20060208 0 3800 0 0
20050609 100 0 0 0
20010601 200 0 0 0
19990629 350 0 0 0
